# ORCA input file 
! OPT NumFreq r2SCAN-3c CPCM 

%maxcore 7500.0 
%pal nprocs True end 
%cpcm smd true SMDsolvent "DMSO" end 

*xyz 1 1
C       0.000308   -0.000076    0.001328
H       1.074373   -0.247862    0.007006
H      -0.751923   -0.806069   -0.012078
H      -0.322757    1.054007    0.003745
*