# ORCA input file 
! OPT NumFreq r2SCAN-3c CPCM 

%maxcore 7500.0 
%pal nprocs True end 
%cpcm smd true SMDsolvent "DMSO" end 

*xyz 1 1
C       0.000135   -0.000186    0.000967
H       1.060008   -0.244345    0.007032
H      -0.741906   -0.795303   -0.011804
H      -0.318236    1.039834    0.003815
*